
;this file is automatically generated: Fri Jan 03 16:26:56 GMT 2020

;declarations generated

(declare-fun oclExcludes ( Int Int) Bool)
(declare-fun Cardinality ( Int) Int)
(declare-fun class0_Class0IntAttr1 ( Int) Int)
(declare-fun type_c0e1acbd_91fa_46f0_bdd4_c9ad36ff09cf_Class0 ( Int) Bool)
(declare-fun oclSelect ( Int Bool) Int)
(declare-fun Enum0 ( Int) Int)
(declare-fun Enum1 ( Int) Int)
(declare-fun Enum2 ( Int) Int)
(declare-fun container_ ( Int) Int)
(declare-fun oclIncludes ( Int Int) Bool)
(declare-fun obj_3c49931c_eca2_4a4a_aae0_d576e5a5f192 ( Int) Int)
(declare-fun ObjAt ( Int Int) Int)

;formula(s) generated
(assert (forall ((p Int)) (=> ( type_c0e1acbd_91fa_46f0_bdd4_c9ad36ff09cf_Class0 p )  (and (>= ( Enum2 ( obj_3c49931c_eca2_4a4a_aae0_d576e5a5f192 p )  )  0) (<= ( Enum2 ( obj_3c49931c_eca2_4a4a_aae0_d576e5a5f192 p )  )  6)))))
(assert (! (and (forall ((v Int)) (=> ( type_c0e1acbd_91fa_46f0_bdd4_c9ad36ff09cf_Class0 v )  (not (= ( Enum2 ( obj_3c49931c_eca2_4a4a_aae0_d576e5a5f192 v )  )  0) ))) (forall ((v Int)) (=> ( type_c0e1acbd_91fa_46f0_bdd4_c9ad36ff09cf_Class0 v )  (not (= ( class0_Class0IntAttr1 ( obj_3c49931c_eca2_4a4a_aae0_d576e5a5f192 v )  )  0) )))):named l0))
(assert (! (forall ((v Int)) (=> ( type_c0e1acbd_91fa_46f0_bdd4_c9ad36ff09cf_Class0 v )  (or (not (= ( Enum2 ( obj_3c49931c_eca2_4a4a_aae0_d576e5a5f192 v )  )  3) ) (or (forall ((v Int)) (=> ( type_c0e1acbd_91fa_46f0_bdd4_c9ad36ff09cf_Class0 v )  (< ( class0_Class0IntAttr1 ( obj_3c49931c_eca2_4a4a_aae0_d576e5a5f192 v )  )  4))) (forall ((v Int)) (=> ( type_c0e1acbd_91fa_46f0_bdd4_c9ad36ff09cf_Class0 v )  (> ( class0_Class0IntAttr1 ( obj_3c49931c_eca2_4a4a_aae0_d576e5a5f192 v )  )  19))))))):named l1))
(assert (exists ((o Int)) ( type_c0e1acbd_91fa_46f0_bdd4_c9ad36ff09cf_Class0 ( obj_3c49931c_eca2_4a4a_aae0_d576e5a5f192 o )  ) ))

 ;end of formula 